10J3M/DAT/10J3MUNL-17.dat
10 3
29.434 29.434
13.6545 13.6545
11.7897 11.7897
26.6563 26.6563
2.4899 2.4899
35.2069 35.2069
39.7872 39.7872
37.3811 37.3811
36.7037 36.7037
10.91 10.91
244.0133