10J3M/SOL/10J3MUNL-17.sol
solution status: optimal solution found
objective value:                     81.3377666666667
x#1#1                               0.538063690516636 	(obj:0)
x#1#2                               0.461936309483364 	(obj:0)
x#2#1                                               1 	(obj:0)
x#3#1                                               1 	(obj:0)
x#4#1                                               1 	(obj:0)
x#5#1                                               1 	(obj:0)
x#6#2                                               1 	(obj:0)
x#7#3                                               1 	(obj:0)
x#8#3                                               1 	(obj:0)
x#9#2                               0.886402006700505 	(obj:0)
x#9#3                               0.113597993299495 	(obj:0)
x#10#1                                              1 	(obj:0)
z                                    81.3377666666667 	(obj:1)
